Welcome to the CBC MILP Solver
Version: Devel (unstable)
Build Date: Feb  6 2022
command line - -import /home/danilo/cbc-test-set/graphdraw-grafo2.mps.gz -timeM elapsed -seconds 10800 -solve -quit (default strategy 1)
At line 8 NAME graphdraw-grafo2
At line 9 ROWS
At line 203466 COLUMNS
At line 514143 RHS
At line 615738 BOUNDS
At line 625131 ENDATA
Problem graphdraw-grafo2 has 203455 rows, 9258 columns and 612366 elements
Coin0008I graphdraw-grafo2 read with 0 errors
seconds was changed from 1e+08 to 10800
Continuous objective value is 35762 - 505.511 seconds
Cgl0003I 0 fixed, 0 tightened bounds, 8917 strengthened rows, 0 substitutions
Cgl0003I 0 fixed, 0 tightened bounds, 8720 strengthened rows, 0 substitutions
Cgl0003I 0 fixed, 0 tightened bounds, 8647 strengthened rows, 0 substitutions
Cgl0004I processed model has 203455 rows, 9258 columns (8978 integer (8844 of which binary)) and 638453 elements
Coin3009W Conflict graph built in 0.065 seconds, density: 0.013%
Cgl0015I Clique Strengthening extended 0 cliques, 0 were dominated
Cbc0038I Initial state - 4406 integers unsatisfied sum - 950.466
Cbc0038I Pass   1: (2086.69 seconds) suminf.  268.28333 (1318) obj. 303926 iterations 21138
Cbc0038I Pass   2: (2183.88 seconds) suminf.  107.00000 (737) obj. 301098 iterations 5425
Cbc0038I Pass   3: (2225.00 seconds) suminf.   80.73333 (633) obj. 307321 iterations 1508
Cbc0038I Pass   4: (2237.58 seconds) suminf.   73.70000 (617) obj. 302447 iterations 452
Cbc0038I Pass   5: (2239.55 seconds) suminf.   72.70000 (613) obj. 292924 iterations 61
Cbc0038I Pass   6: (2278.36 seconds) suminf.   63.80000 (565) obj. 293953 iterations 1099
Cbc0038I Pass   7: (2281.12 seconds) suminf.   62.20000 (561) obj. 293953 iterations 105
Cbc0038I Pass   8: (2287.36 seconds) suminf.   61.76667 (564) obj. 293830 iterations 184
Cbc0038I Pass   9: (2341.35 seconds) suminf.   58.93333 (542) obj. 288626 iterations 1518
Cbc0038I Pass  10: (2355.28 seconds) suminf.   57.53333 (582) obj. 294493 iterations 390
Cbc0038I Pass  11: (2390.61 seconds) suminf.   54.80000 (529) obj. 302172 iterations 792
Cbc0038I Pass  12: (2408.05 seconds) suminf.   54.66667 (536) obj. 310310 iterations 617
Cbc0038I Pass  13: (2428.30 seconds) suminf.   50.66667 (478) obj. 303143 iterations 871
Cbc0038I Pass  14: (2447.96 seconds) suminf.   50.66667 (486) obj. 311280 iterations 428
Cbc0038I Pass  15: (2468.08 seconds) suminf.   50.46667 (477) obj. 299860 iterations 660
Cbc0038I Pass  16: (2503.55 seconds) suminf.   49.80000 (482) obj. 311280 iterations 946
Cbc0038I Pass  17: (2536.03 seconds) suminf.   46.06667 (463) obj. 311184 iterations 828
Cbc0038I Pass  18: (2550.38 seconds) suminf.   44.76667 (454) obj. 311184 iterations 377
Cbc0038I Pass  19: (2576.13 seconds) suminf.   42.06667 (454) obj. 307943 iterations 836
Cbc0038I Pass  20: (2595.74 seconds) suminf.   41.73333 (456) obj. 314393 iterations 390
Cbc0038I Pass  21: (2628.21 seconds) suminf.   40.23333 (403) obj. 327796 iterations 728
Cbc0038I Pass  22: (2646.02 seconds) suminf.   39.20000 (431) obj. 325141 iterations 389
Cbc0038I Pass  23: (2669.11 seconds) suminf.   35.46667 (371) obj. 324384 iterations 565
Cbc0038I Pass  24: (2680.65 seconds) suminf.   35.23333 (377) obj. 327812 iterations 364
Cbc0038I Pass  25: (2701.16 seconds) suminf.   34.60000 (363) obj. 325507 iterations 1007
Cbc0038I Pass  26: (2728.77 seconds) suminf.   33.93333 (371) obj. 315501 iterations 738
Cbc0038I Pass  27: (2763.44 seconds) suminf.   31.33333 (384) obj. 325992 iterations 1105
Cbc0038I Pass  28: (2785.34 seconds) suminf.   31.13333 (378) obj. 324411 iterations 449
Cbc0038I Pass  29: (2805.92 seconds) suminf.   30.66667 (378) obj. 325016 iterations 424
Cbc0038I Pass  30: (2827.92 seconds) suminf.   30.20000 (384) obj. 325260 iterations 433
Cbc0038I No solution found this major pass
Cbc0038I Before mini branch and bound, 3923 integers at bound fixed and 0 continuous
Cbc0038I Full problem 203455 rows 9258 columns, reduced to 39860 rows 3808 columns
Cbc0038I Mini branch and bound did not improve solution (2994.56 seconds)
Cbc0038I After 2994.56 seconds - Feasibility pump exiting - took 1343.26 seconds
Cbc0031I 2698 added rows had average density of 28.0745
Cbc0013I At root node, 2698 cuts changed objective from 35762 to 36126.352 in 6 passes
Cbc0014I Cut generator 0 (Probing) - 0 row cuts average 0.0 elements, 0 column cuts (508 active)  in 6.003 seconds - new frequency is -100
Cbc0014I Cut generator 1 (Gomory) - 5200 row cuts average 24.6 elements, 0 column cuts (0 active)  in 218.430 seconds - new frequency is 1
Cbc0014I Cut generator 2 (Knapsack) - 0 row cuts average 0.0 elements, 0 column cuts (0 active)  in 1.259 seconds - new frequency is -100
Cbc0014I Cut generator 3 (Clique) - 0 row cuts average 0.0 elements, 0 column cuts (0 active)  in 8.107 seconds - new frequency is -100
Cbc0014I Cut generator 4 (OddWheel) - 0 row cuts average 0.0 elements, 0 column cuts (0 active)  in 19.563 seconds - new frequency is -100
Cbc0014I Cut generator 5 (MixedIntegerRounding2) - 0 row cuts average 0.0 elements, 0 column cuts (0 active)  in 4.374 seconds - new frequency is -100
Cbc0014I Cut generator 6 (FlowCover) - 0 row cuts average 0.0 elements, 0 column cuts (0 active)  in 0.441 seconds - new frequency is -100
Cbc0014I Cut generator 7 (TwoMirCuts) - 6486 row cuts average 25.0 elements, 0 column cuts (0 active)  in 313.067 seconds - new frequency is 1
Cbc0020I Exiting on maximum time
Cbc0005I Partial search - best objective 1e+50 (best possible 36126.352), took 191356 iterations and 0 nodes (11920.68 seconds)
Cbc0035I Maximum depth 0, 0 variables fixed on reduced cost
Cuts at root node changed objective from 35762 to 36126.4
Probing was tried 6 times and created 0 cuts of which 508 were active after adding rounds of cuts (6.00302 seconds)
Gomory was tried 6 times and created 5200 cuts of which 0 were active after adding rounds of cuts (218.43 seconds)
Knapsack was tried 6 times and created 0 cuts of which 0 were active after adding rounds of cuts (1.25858 seconds)
Clique was tried 6 times and created 0 cuts of which 0 were active after adding rounds of cuts (8.10659 seconds)
OddWheel was tried 6 times and created 0 cuts of which 0 were active after adding rounds of cuts (19.563 seconds)
MixedIntegerRounding2 was tried 6 times and created 0 cuts of which 0 were active after adding rounds of cuts (4.37417 seconds)
FlowCover was tried 6 times and created 0 cuts of which 0 were active after adding rounds of cuts (0.440537 seconds)
TwoMirCuts was tried 6 times and created 6486 cuts of which 0 were active after adding rounds of cuts (313.067 seconds)
ZeroHalf was tried 1 times and created 0 cuts of which 0 were active after adding rounds of cuts (265.368 seconds)

Result - Stopped on time limit
No feasible solution found
Lower bound:                    36126.4
Enumerated nodes:               0
Total iterations:               191356
Time (CPU seconds):             11917.9
Time (Wallclock seconds):       11920.7
Total time (CPU seconds):       11920   (Wallclock seconds):       11923
